(set-logic ALL)
(declare-fun var0 () String)
(assert (str.in_re var0 (re.++ (re.union (re.* (str.to_re "0")) (re.* (str.to_re "11"))) (re.++ (re.* (re.+ (str.to_re "222"))) (re.++ (re.+ (re.+ (str.to_re "333"))) (re.++ (re.* (re.union (str.to_re "444") (str.to_re "55"))) (re.++ (re.+ (re.+ (str.to_re "66"))) (re.++ (re.union (re.union (str.to_re "7") (str.to_re "88")) (re.union (str.to_re "9") (str.to_re "aaa"))) (re.++ (re.+ (re.* (str.to_re "bbb"))) (re.++ (re.+ (re.+ (str.to_re "c"))) (re.++ (re.union (re.union (str.to_re "ddd") (str.to_re "e")) (re.union (str.to_re "fff") (str.to_re "g"))) (re.++ (re.* (re.union (str.to_re "hhh") (str.to_re "iii"))) (re.++ (re.union (re.* (str.to_re "jj")) (re.* (str.to_re "kkk"))) (re.++ (re.+ (re.* (str.to_re "l"))) (re.++ (re.union (re.+ (str.to_re "mm")) (re.+ (str.to_re "nn"))) (re.++ (re.+ (re.* (str.to_re "o"))) (re.++ (re.* (re.* (str.to_re "p"))) (re.++ (re.* (re.+ (str.to_re "qqq"))) (re.++ (re.* (re.* (str.to_re "rrr"))) (re.++ (re.+ (re.union (str.to_re "sss") (str.to_re "t"))) (re.++ (re.+ (re.union (str.to_re "uuu") (str.to_re "v"))) (re.++ (re.union (re.union (str.to_re "w") (str.to_re "xxx")) (re.union (str.to_re "y") (str.to_re "zz"))) (re.++ (re.* (re.union (str.to_re "A") (str.to_re "BBB"))) (re.++ (re.union (re.union (str.to_re "CC") (str.to_re "D")) (re.union (str.to_re "E") (str.to_re "FF"))) (re.++ (re.+ (re.+ (str.to_re "GGG"))) (re.++ (re.union (re.* (str.to_re "H")) (re.* (str.to_re "II"))) (re.++ (re.* (re.+ (str.to_re "JJJ"))) (re.++ (re.* (re.union (str.to_re "K") (str.to_re "LL"))) (re.++ (re.+ (re.+ (str.to_re "MMM"))) (re.++ (re.+ (re.* (str.to_re "N"))) (re.++ (re.union (re.union (str.to_re "OOO") (str.to_re "P")) (re.union (str.to_re "QQ") (str.to_re "R"))) (re.++ (re.* (re.union (str.to_re "SSS") (str.to_re "TT"))) (re.++ (re.* (re.+ (str.to_re "U"))) (re.++ (re.union (re.union (str.to_re "VV") (str.to_re "W")) (re.union (str.to_re "X") (str.to_re "Y"))) (re.++ (re.* (re.+ (str.to_re "ZZZ"))) (re.++ (re.union (re.* (str.to_re "!!!")) (re.* (str.to_re """"""))) (re.++ (re.union (re.union (str.to_re "#") (str.to_re "$$")) (re.union (str.to_re "%%%") (str.to_re "&&"))) (re.++ (re.+ (re.* (str.to_re "''"))) (re.++ (re.* (re.+ (str.to_re "(("))) (re.++ (re.+ (re.+ (str.to_re ")"))) (re.++ (re.+ (re.* (str.to_re "*"))) (re.++ (re.* (re.union (str.to_re "+") (str.to_re ","))) (re.++ (re.+ (re.union (str.to_re "---") (str.to_re "."))) (re.++ (re.union (re.* (str.to_re "//")) (re.* (str.to_re ":"))) (re.++ (re.union (re.union (str.to_re ";") (str.to_re "<<")) (re.union (str.to_re "=") (str.to_re ">>>"))) (re.++ (re.* (re.union (str.to_re "???") (str.to_re "@@@"))) (re.++ (re.union (re.* (str.to_re "[[")) (re.* (str.to_re "\\\\\\"))) (re.++ (re.* (re.+ (str.to_re "]]"))) (re.++ (re.+ (re.+ (str.to_re "^^^"))) (re.++ (re.union (re.* (str.to_re "___")) (re.* (str.to_re "`"))) (re.++ (re.union (re.* (str.to_re "{{{")) (re.* (str.to_re "|"))) (re.++ (re.* (re.union (str.to_re "}}") (str.to_re "~~~"))) (re.++ (re.* (re.union (str.to_re "00") (str.to_re "11"))) (re.++ (re.* (re.* (str.to_re "22"))) (re.++ (re.+ (re.+ (str.to_re "33"))) (re.++ (re.union (re.+ (str.to_re "444")) (re.+ (str.to_re "5"))) (re.++ (re.* (re.* (str.to_re "666"))) (re.++ (re.* (re.* (str.to_re "777"))) (re.* (re.union (str.to_re "8") (str.to_re "99")))))))))))))))))))))))))))))))))))))))))))))))))))))))))))))
(check-sat)